; benchmark generated from python API
(set-info :status unknown)
(declare-datatypes ((RealState 0)) (((RMk1 (rval1 Real)) (RMk2 (rval2 Real)))))
 (declare-fun yuscore2dollarskuscore9 () Real)
(declare-fun t6uscore0dollarskuscore1 () Real)
(declare-fun stuscore2dollarskuscore9 () Real)
(declare-fun xuscore2dollarskuscore1 () Real)
(assert
 (let (($x190 (exists ((ts6uscore1_st RealState) (val!211 Real) )(let (($x72 (<= (+ t6uscore0dollarskuscore1 yuscore2dollarskuscore9) 12.0)))
 (let (($x218 (= stuscore2dollarskuscore9 3.0)))
 (let (($x127 (or $x218 $x72)))
 (let (($x200 (<= yuscore2dollarskuscore9 (+ 10.0 xuscore2dollarskuscore1))))
 (let (($x195 (<= yuscore2dollarskuscore9 12.0)))
 (let (($x124 (>= yuscore2dollarskuscore9 1.0)))
 (let (($x119 (= stuscore2dollarskuscore9 0.0)))
 (let (($x166 (< yuscore2dollarskuscore9 10.0)))
 (let (($x142 (>= t6uscore0dollarskuscore1 0.0)))
 (let (($x39 (<= (+ (rval2 ts6uscore1_st) yuscore2dollarskuscore9) 10.0)))
 (let (($x145 (and (<= 0.0 (rval2 ts6uscore1_st)) (<= (rval2 ts6uscore1_st) t6uscore0dollarskuscore1))))
 (let (($x45 (and (and (and (and (and (=> $x145 $x39) $x142) $x166) $x119) $x124) $x195)))
 (let (($x94 (not (= ts6uscore1_st (RMk1 val!211)))))
 (and $x94 (=> (and $x45 $x200) $x127))))))))))))))))
 ))
 (not $x190)))
(check-sat)
